mixintcount/benchmarks/random_v2l/4_4_354.in
16 6
#	x1	x2	x3	x4;		0 = Real; 1 = Integer
	1	1	1	1
1	1	5	6	4	-289
1	5	-10	-10	9	269
1	-8	-3	-2	0	92
1	8	-4	-8	6	-270
1	-10	8	-10	1	289
1	-7	-1	-2	10	-203
1	-9	0	-9	5	327
1	-9	0	-8	-8	63
1	1	0	0	0	354
1	-1	0	0	0	354
1	0	1	0	0	354
1	0	-1	0	0	354
1	0	0	1	0	354
1	0	0	-1	0	354
1	0	0	0	1	354
1	0	0	0	-1	354
